%int: n; % Número de días
%int: m; % Número de clientes
%array[1..n, 1..m] of int: demand; % Demanda diaria por cliente y día
%array[1..3] of int: costs; % Costos de producción (N, H, T)
%array[1..3] of int: capacities; % Capacidad diaria (N, H, T)
%array[1..m] of int: Ps; % Pago individual por cliente por MW
%float: min_demand_percentage = 0.50; % Porcentaje mínimo de demanda a cubrir
%float: hydro_max_percentage = 0.80; % Porcentaje máximo de capacidad para hidroeléctrica
%int: hydro_max_consecutive_days = 1; % Días consecutivos máximos a ese porcentaje


% Número de días
n = 15;

% Número de clientes
m = 5;

% Demanda diaria por cliente y día (suponiendo quince días y 5 clientes)
demand = [| 580,  690, 700,  710, 720
          | 585,  695, 705,  715, 725
          | 590,  700, 710,  720, 730
          | 595,  705, 715,  725, 735
          | 600,  710, 720,  730, 740
          | 650,  715, 725,  735, 745
          | 710,  720, 730,  740, 750
          | 715,  725, 735,  745, 755
          | 720,  730, 740,  750, 760
          | 725,  735, 745,  755, 765
          | 730,  740, 750,  760, 770
          | 735,  745, 755,  765, 775
          | 740,  750, 760,  770, 780
          | 745,  755, 765,  775, 785
          | 750,  760, 770,  780, 790 |];


% Costos de producción (Nuclear, Hidroeléctrica, Térmica)
costs = [52, 25, 33]; 

% Capacidad diaria (Nuclear, Hidroeléctrica, Térmica)
capacities = [1130, 370, 620];

% Pago individual por cliente por MW (3 clientes)
Ps = [62, 60, 58, 52, 50]; 

% Porcentaje mínimo de demanda a cubrir
min_demand_percentage = 0.50;

% Porcentaje máximo de capacidad para hidroeléctrica
hydro_max_percentage = 0.80;

% Días consecutivos máximos a ese porcentaje
hydro_max_consecutive_days = 3;


